clingo version 5.6.2
Reading from ...gen_asp_scripts/ijp_expt_cases-1094.dl
Solving...
UNSATISFIABLE

Models       : 0
Calls        : 1
Time         : 9.726s (Solving: 8.73s 1st Model: 0.00s Unsat: 8.73s)
CPU Time     : 9.512s
